\ LP format - for model browsing. Use MPS format to capture full model detail.
Minimize
  0 B30(0) + 0 B31(0) + 0 B35(0) + 0 B36(0) + 0 B37(0) + 0 B38(0) + 0 B39(0)
   + 0 B41(0) + 0 B45(0) + 0 B46(0) + 0 B47(0) + 0 B50(0) + 0 B51(0)
   + 0 B55(0) + 0 B59(0) + 0 B61(0) + 0 B62(0) + 0 B67(0) + 0 B71(0)
   + 0 B72(0) + 0 B73(0) + 0 B75(0) + 0 B76(0) + 0 B77(0) + 0 B78(0)
   + 0 B80(0) + 0 B81(0) + 0 B83(0) + 0 B85(0) + 0 B87(0) + 0 B90(0)
   + 0 B91(0) + 0 B92(0) + 0 B94(0) + 0 B95(0) + 0 B96(0) + 0 B98(0)
   + 0 B100(0) + 0 B102(0) + 0 B105(0) + 0 B106(0) + 0 B107(0) + 0 B108(0)
   + 0 B109(0) + 0 B110(0) + 0 B117(0) + 0 B118(0) + 0 B120(0) + 0 B121(0)
   + 0 B122(0) + 0 B123(0) + 0 B124(0) + 0 B125(0) + 0 B126(0) + 0 B132(0)
   + 0 B133(0) + 0 B135(0) + 0 B136(0) + 0 B137(0) + 0 B138(0) + 0 B139(0)
   + 0 B140(0) + 0 B142(0) + 0 B143(0) + 0 B145(0) + 0 B147(0) + 0 B149(0)
   + 0 B150(0) + 0 B151(0) + 0 B152(0) + 0 B153(0) + 0 B154(0) + 0 B155(0)
   + 0 B157(0) + 0 B158(0) + 0 B161(0) + 0 B163(0) + 0 B165(0) + 0 B166(0)
   + 0 B167(0) + 0 B168(0) + 0 B169(0) + 0 B170(0) + 0 B171(0) + 0 B172(0)
   + 0 B173(0) + 0 B174(0) + 0 B177(0) + 0 B180(0) + 0 B181(0) + 0 B182(0)
   + 0 B183(0) + 0 B184(0) + 0 B185(0) + 0 B186(0) + 0 B187(0) + 0 B188(0)
   + 0 B190(0) + 0 B191(0) + 0 B195(0) + 0 B196(0) + 0 B197(0) + 0 B198(0)
   + 0 B199(0) + 0 B200(0) + 0 B201(0) + 0 B202(0) + 0 B203(0) + 0 B205(0)
   + 0 B206(0) + 0 B207(0) + 0 B209(0) + 0 B210(0) + 0 B211(0) + 0 B212(0)
   + 0 B213(0) + 0 B214(0) + 0 B215(0) + 0 B216(0) + 0 B217(0) + 0 B218(0)
   + 0 B219(0) + 0 B220(0) + 0 B221(0) + 0 B222(0) + 0 B224(0) + 0 B225(0)
   + 0 B226(0) + 0 B227(0) + 0 B228(0) + 0 B229(0) + 0 B230(0) + 0 B231(0)
   + 0 B232(0) + 0 B233(0) + 0 B234(0) + 0 B235(0) + 0 B236(0) + 0 B238(0)
   + 0 B239(0) + 0 B240(0) + 0 B241(0) + 0 B242(0) + 0 B243(0) + 0 B244(0)
   + 0 B245(0) + 0 B246(0) + 0 B247(0) + 0 B248(0) + 0 B249(0) + 0 B250(0)
   + 0 B251(0) + 0 B252(0) + 0 B253(0) + 0 B254(0) + I285(1)
Subject To
 c0: 2 B0(15) + I255(17) - 1e+07 B286(5) >= -9.999994e+06
 c1: 2 B0(15) + I255(17) - 1e+07 B286(5) <= 6
 c2: 4 B1(11) + I256(13) - 1e+07 B287(5) >= -9.999994e+06
 c3: 4 B1(11) + I256(13) - 1e+07 B287(5) <= 6
 c4: 4 B6(19) + I261(21) - 1e+07 B288(5) >= -9.999988e+06
 c5: 4 B6(19) + I261(21) - 1e+07 B288(5) <= 12
 c6: 5 B7(15) + I262(17) - 1e+07 B289(5) >= -9.999988e+06
 c7: 5 B7(15) + I262(17) - 1e+07 B289(5) <= 12
 c8: 5 B12(13) + I267(16) - 1e+07 B290(5) >= -9.999994e+06
 c9: 5 B12(13) + I267(16) - 1e+07 B290(5) <= 6
 c10: 2 B13(19) + I268(22) - 1e+07 B291(5) >= -9.999994e+06
 c11: 2 B13(19) + I268(22) - 1e+07 B291(5) <= 6
 c12: 3 B18(18) + I273(22) - 1e+07 B292(5) >= -9.999985e+06
 c13: 3 B18(18) + I273(22) - 1e+07 B292(5) <= 15
 c14: 3 B19(18) + I274(22) - 1e+07 B293(5) >= -9.999985e+06
 c15: 3 B19(18) + I274(22) - 1e+07 B293(5) <= 15
 c16: 2 B24(8) + I279(12) - 1e+07 B294(5) >= -9.999988e+06
 c17: 2 B24(8) + I279(12) - 1e+07 B294(5) <= 12
 c18: 4 B25(12) + I280(16) - 1e+07 B295(5) >= -9.999988e+06
 c19: 4 B25(12) + I280(16) - 1e+07 B295(5) <= 12
 c20: B286(5) >= 0
 c21: B287(5) >= 0
 c22: B288(5) >= 0
 c23: B289(5) >= 0
 c24: B290(5) >= 0
 c25: B291(5) >= 0
 c26: B292(5) >= 0
 c27: B293(5) >= 0
 c28: B294(5) >= 0
 c29: B295(5) >= 0
 c30: B0(15) + B1(11) = 1
 c31: B2(8) + B3(16) = 1
 c32: B4(13) + B5(15) = 1
 c33: B6(19) + B7(15) = 1
 c34: B8(18) + B9(14) = 1
 c35: B10(10) + B11(16) = 1
 c36: B12(13) + B13(19) = 1
 c37: B14(12) + B15(16) = 1
 c38: B16(8) + B17(18) = 1
 c39: B18(18) + B19(18) = 1
 c40: B20(17) + B21(9) = 1
 c41: B22(9) + B23(17) = 1
 c42: B24(8) + B25(12) = 1
 c43: B26(16) + B27(12) = 1
 c44: B28(12) + B29(16) = 1
 c45: - 1e+07 B0(15) + I255(17) <= 0
 c46: - 1e+07 B1(11) + I256(13) <= 0
 c47: - 1e+07 B2(8) + I257(9) <= 0
 c48: - 1e+07 B3(16) + I258(17) <= 0
 c49: - 1e+07 B4(13) + I259(14) <= 0
 c50: - 1e+07 B5(15) + I260(16) <= 0
 c51: - 1e+07 B6(19) + I261(21) <= 0
 c52: - 1e+07 B7(15) + I262(17) <= 0
 c53: - 1e+07 B8(18) + I263(19) <= 0
 c54: - 1e+07 B9(14) + I264(15) <= 0
 c55: - 1e+07 B10(10) + I265(10) <= 0
 c56: - 1e+07 B11(16) + I266(16) <= 0
 c57: - 1e+07 B12(13) + I267(16) <= 0
 c58: - 1e+07 B13(19) + I268(22) <= 0
 c59: - 1e+07 B14(12) + I269(12) <= 0
 c60: - 1e+07 B15(16) + I270(16) <= 0
 c61: - 1e+07 B16(8) + I271(8) <= 0
 c62: - 1e+07 B17(18) + I272(18) <= 0
 c63: - 1e+07 B18(18) + I273(22) <= 0
 c64: - 1e+07 B19(18) + I274(22) <= 0
 c65: - 1e+07 B20(17) + I275(18) <= 0
 c66: - 1e+07 B21(9) + I276(10) <= 0
 c67: - 1e+07 B22(9) + I277(10) <= 0
 c68: - 1e+07 B23(17) + I278(18) <= 0
 c69: - 1e+07 B24(8) + I279(12) <= 0
 c70: - 1e+07 B25(12) + I280(16) <= 0
 c71: - 1e+07 B26(16) + I281(16) <= 0
 c72: - 1e+07 B27(12) + I282(12) <= 0
 c73: - 1e+07 B28(12) + I283(12) <= 0
 c74: - 1e+07 B29(16) + I284(16) <= 0
 c75: - 5 B2(8) - 4 B3(16) + I255(17) + I256(13) - I257(9) - I258(17) >= 0
 c76: - 5 B4(13) - 3 B5(15) + I257(9) + I258(17) - I259(14) - I260(16)
   >= 0
 c77: - 2 B8(18) - 2 B9(14) + I261(21) + I262(17) - I263(19) - I264(15)
   >= 0
 c78: - 5 B10(10) - 2 B11(16) + I263(19) + I264(15) - I265(10) - I266(16)
   >= 0
 c79: - 3 B14(12) - 4 B15(16) + I267(16) + I268(22) - I269(12) - I270(16)
   >= 0
 c80: - 4 B16(8) - 2 B17(18) + I267(16) + I268(22) - I271(8) - I272(18)
   >= 0
 c81: - 3 B20(17) - 3 B21(9) + I273(22) + I274(22) - I275(18) - I276(10)
   >= 0
 c82: - 5 B22(9) - 2 B23(17) + I273(22) + I274(22) - I277(10) - I278(18)
   >= 0
 c83: - 2 B26(16) - 5 B27(12) + I279(12) + I280(16) - I281(16) - I282(12)
   >= 0
 c84: - 4 B28(12) - 4 B29(16) + I279(12) + I280(16) - I283(12) - I284(16)
   >= 0
 c85: - 1e+07 B0(15) - 1e+07 B4(13) + 1e+07 B32(2) - I255(17) + I259(14)
   >= -1.9999978e+07
 c86: - 1e+07 B0(15) - 1e+07 B4(13) - 1e+07 B32(2) + I255(17) - I259(14)
   >= -2.9999989e+07
 c87: - 1e+07 B0(15) - 1e+07 B7(15) + 1e+07 B33(2) - I255(17) + I262(17)
   >= -1.999999e+07
 c88: - 1e+07 B0(15) - 1e+07 B7(15) - 1e+07 B33(2) + I255(17) - I262(17)
   >= -2.9999987e+07
 c89: - 1e+07 B0(15) - 1e+07 B9(14) + 1e+07 B34(2) - I255(17) + I264(15)
   >= -1.9999973e+07
 c90: - 1e+07 B0(15) - 1e+07 B9(14) - 1e+07 B34(2) + I255(17) - I264(15)
   >= -2.9999993e+07
 c91: - 1e+07 B1(11) - 1e+07 B21(9) + 1e+07 B40(2) - I256(13) + I276(10)
   >= -1.9999987e+07
 c92: - 1e+07 B1(11) - 1e+07 B21(9) - 1e+07 B40(2) + I256(13) - I276(10)
   >= -2.9999991e+07
 c93: - 1e+07 B1(11) - 1e+07 B25(12) + 1e+07 B42(2) - I256(13) + I280(16)
   >= -1.9999987e+07
 c94: - 1e+07 B1(11) - 1e+07 B25(12) - 1e+07 B42(2) + I256(13) - I280(16)
   >= -2.9999994e+07
 c95: - 1e+07 B1(11) - 1e+07 B27(12) + 1e+07 B43(2) - I256(13) + I282(12)
   >= -1.999999e+07
 c96: - 1e+07 B1(11) - 1e+07 B27(12) - 1e+07 B43(2) + I256(13) - I282(12)
   >= -2.999998e+07
 c97: - 1e+07 B0(15) - 1e+07 B28(12) + 1e+07 B44(2) - I255(17) + I283(12)
   >= -1.9999994e+07
 c98: - 1e+07 B0(15) - 1e+07 B28(12) - 1e+07 B44(2) + I255(17) - I283(12)
   >= -2.9999993e+07
 c99: - 1e+07 B3(16) - 1e+07 B6(19) + 1e+07 B48(2) - I258(17) + I261(21)
   >= -1.9999992e+07
 c100: - 1e+07 B3(16) - 1e+07 B6(19) - 1e+07 B48(2) + I258(17) - I261(21)
   >= -2.999999e+07
 c101: - 1e+07 B3(16) - 1e+07 B8(18) + 1e+07 B49(2) - I258(17) + I263(19)
   >= -1.9999991e+07
 c102: - 1e+07 B3(16) - 1e+07 B8(18) - 1e+07 B49(2) + I258(17) - I263(19)
   >= -2.9999996e+07
 c103: - 1e+07 B3(16) - 1e+07 B15(16) + 1e+07 B52(2) - I258(17) + I270(16)
   >= -1.9999976e+07
 c104: - 1e+07 B3(16) - 1e+07 B15(16) - 1e+07 B52(2) + I258(17) - I270(16)
   >= -2.9999976e+07
 c105: - 1e+07 B2(8) - 1e+07 B16(8) + 1e+07 B53(2) - I257(9) + I271(8)
   >= -1.999998e+07
 c106: - 1e+07 B2(8) - 1e+07 B16(8) - 1e+07 B53(2) + I257(9) - I271(8)
   >= -2.9999994e+07
 c107: - 1e+07 B3(16) - 1e+07 B18(18) + 1e+07 B54(2) - I258(17) + I273(22)
   >= -1.9999986e+07
 c108: - 1e+07 B3(16) - 1e+07 B18(18) - 1e+07 B54(2) + I258(17) - I273(22)
   >= -2.9999994e+07
 c109: - 1e+07 B3(16) - 1e+07 B23(17) + 1e+07 B56(2) - I258(17) + I278(18)
   >= -1.9999976e+07
 c110: - 1e+07 B3(16) - 1e+07 B23(17) - 1e+07 B56(2) + I258(17) - I278(18)
   >= -2.9999983e+07
 c111: - 1e+07 B2(8) - 1e+07 B24(8) + 1e+07 B57(2) - I257(9) + I279(12)
   >= -1.9999975e+07
 c112: - 1e+07 B2(8) - 1e+07 B24(8) - 1e+07 B57(2) + I257(9) - I279(12)
   >= -2.9999995e+07
 c113: - 1e+07 B3(16) - 1e+07 B26(16) + 1e+07 B58(2) - I258(17) + I281(16)
   >= -1.999999e+07
 c114: - 1e+07 B3(16) - 1e+07 B26(16) - 1e+07 B58(2) + I258(17) - I281(16)
   >= -2.999999e+07
 c115: - 1e+07 B0(15) - 1e+07 B4(13) + 1e+07 B60(2) + I255(17) - I259(14)
   >= -1.9999989e+07
 c116: - 1e+07 B0(15) - 1e+07 B4(13) - 1e+07 B60(2) - I255(17) + I259(14)
   >= -2.9999978e+07
 c117: - 1e+07 B4(13) - 1e+07 B7(15) + 1e+07 B63(2) - I259(14) + I262(17)
   >= -1.9999991e+07
 c118: - 1e+07 B4(13) - 1e+07 B7(15) - 1e+07 B63(2) + I259(14) - I262(17)
   >= -2.9999993e+07
 c119: - 1e+07 B4(13) - 1e+07 B9(14) + 1e+07 B64(2) - I259(14) + I264(15)
   >= -1.9999992e+07
 c120: - 1e+07 B4(13) - 1e+07 B9(14) - 1e+07 B64(2) + I259(14) - I264(15)
   >= -2.9999986e+07
 c121: - 1e+07 B5(15) - 1e+07 B11(16) + 1e+07 B65(2) - I260(16) + I266(16)
   >= -1.9999988e+07
 c122: - 1e+07 B5(15) - 1e+07 B11(16) - 1e+07 B65(2) + I260(16) - I266(16)
   >= -2.9999983e+07
 c123: - 1e+07 B5(15) - 1e+07 B13(19) + 1e+07 B66(2) - I260(16) + I268(22)
   >= -1.9999982e+07
 c124: - 1e+07 B5(15) - 1e+07 B13(19) - 1e+07 B66(2) + I260(16) - I268(22)
   >= -2.999999e+07
 c125: - 1e+07 B5(15) - 1e+07 B17(18) + 1e+07 B68(2) - I260(16) + I272(18)
   >= -1.9999995e+07
 c126: - 1e+07 B5(15) - 1e+07 B17(18) - 1e+07 B68(2) + I260(16) - I272(18)
   >= -2.9999994e+07
 c127: - 1e+07 B5(15) - 1e+07 B19(18) + 1e+07 B69(2) - I260(16) + I274(22)
   >= -1.9999991e+07
 c128: - 1e+07 B5(15) - 1e+07 B19(18) - 1e+07 B69(2) + I260(16) - I274(22)
   >= -2.9999991e+07
 c129: - 1e+07 B5(15) - 1e+07 B20(17) + 1e+07 B70(2) - I260(16) + I275(18)
   >= -1.9999995e+07
 c130: - 1e+07 B5(15) - 1e+07 B20(17) - 1e+07 B70(2) + I260(16) - I275(18)
   >= -2.9999991e+07
 c131: - 1e+07 B4(13) - 1e+07 B28(12) + 1e+07 B74(4) - I259(14) + I283(12)
   >= -1.9999993e+07
 c132: - 1e+07 B4(13) - 1e+07 B28(12) - 1e+07 B74(4) + I259(14) - I283(12)
   >= -2.9999981e+07
 c133: - 1e+07 B5(15) - 1e+07 B29(16) + 1e+07 B74(4) - I260(16) + I284(16)
   >= -1.9999993e+07
 c134: - 1e+07 B5(15) - 1e+07 B29(16) - 1e+07 B74(4) + I260(16) - I284(16)
   >= -2.9999993e+07
 c135: - 1e+07 B6(19) - 1e+07 B8(18) + 1e+07 B79(4) - I261(21) + I263(19)
   >= -1.9999992e+07
 c136: - 1e+07 B6(19) - 1e+07 B8(18) - 1e+07 B79(4) + I261(21) - I263(19)
   >= -2.9999986e+07
 c137: - 1e+07 B7(15) - 1e+07 B9(14) + 1e+07 B79(4) - I262(17) + I264(15)
   >= -1.999999e+07
 c138: - 1e+07 B7(15) - 1e+07 B9(14) - 1e+07 B79(4) + I262(17) - I264(15)
   >= -2.9999986e+07
 c139: - 1e+07 B6(19) - 1e+07 B15(16) + 1e+07 B82(2) - I261(21) + I270(16)
   >= -1.9999986e+07
 c140: - 1e+07 B6(19) - 1e+07 B15(16) - 1e+07 B82(2) + I261(21) - I270(16)
   >= -2.9999986e+07
 c141: - 1e+07 B6(19) - 1e+07 B18(18) + 1e+07 B84(2) - I261(21) + I273(22)
   >= -1.999999e+07
 c142: - 1e+07 B6(19) - 1e+07 B18(18) - 1e+07 B84(2) + I261(21) - I273(22)
   >= -2.9999995e+07
 c143: - 1e+07 B6(19) - 1e+07 B23(17) + 1e+07 B86(2) - I261(21) + I278(18)
   >= -1.9999992e+07
 c144: - 1e+07 B6(19) - 1e+07 B23(17) - 1e+07 B86(2) + I261(21) - I278(18)
   >= -2.9999986e+07
 c145: - 1e+07 B6(19) - 1e+07 B26(16) + 1e+07 B88(2) - I261(21) + I281(16)
   >= -1.9999984e+07
 c146: - 1e+07 B6(19) - 1e+07 B26(16) - 1e+07 B88(2) + I261(21) - I281(16)
   >= -2.9999989e+07
 c147: - 1e+07 B7(15) - 1e+07 B28(12) + 1e+07 B89(2) - I262(17) + I283(12)
   >= -1.9999983e+07
 c148: - 1e+07 B7(15) - 1e+07 B28(12) - 1e+07 B89(2) + I262(17) - I283(12)
   >= -2.9999976e+07
 c149: - 1e+07 B6(19) - 1e+07 B8(18) + 1e+07 B93(4) + I261(21) - I263(19)
   >= -1.9999986e+07
 c150: - 1e+07 B6(19) - 1e+07 B8(18) - 1e+07 B93(4) - I261(21) + I263(19)
   >= -2.9999992e+07
 c151: - 1e+07 B7(15) - 1e+07 B9(14) + 1e+07 B93(4) + I262(17) - I264(15)
   >= -1.9999986e+07
 c152: - 1e+07 B7(15) - 1e+07 B9(14) - 1e+07 B93(4) - I262(17) + I264(15)
   >= -2.999999e+07
 c153: - 1e+07 B8(18) - 1e+07 B15(16) + 1e+07 B97(2) - I263(19) + I270(16)
   >= -1.9999986e+07
 c154: - 1e+07 B8(18) - 1e+07 B15(16) - 1e+07 B97(2) + I263(19) - I270(16)
   >= -2.9999991e+07
 c155: - 1e+07 B8(18) - 1e+07 B18(18) + 1e+07 B99(2) - I263(19) + I273(22)
   >= -1.9999993e+07
 c156: - 1e+07 B8(18) - 1e+07 B18(18) - 1e+07 B99(2) + I263(19) - I273(22)
   >= -2.9999989e+07
 c157: - 1e+07 B8(18) - 1e+07 B23(17) + 1e+07 B101(2) - I263(19) + I278(18)
   >= -1.9999994e+07
 c158: - 1e+07 B8(18) - 1e+07 B23(17) - 1e+07 B101(2) + I263(19) - I278(18)
   >= -2.999999e+07
 c159: - 1e+07 B8(18) - 1e+07 B26(16) + 1e+07 B103(2) - I263(19) + I281(16)
   >= -1.9999978e+07
 c160: - 1e+07 B8(18) - 1e+07 B26(16) - 1e+07 B103(2) + I263(19) - I281(16)
   >= -2.9999989e+07
 c161: - 1e+07 B9(14) - 1e+07 B28(12) + 1e+07 B104(2) - I264(15) + I283(12)
   >= -1.9999978e+07
 c162: - 1e+07 B9(14) - 1e+07 B28(12) - 1e+07 B104(2) + I264(15) - I283(12)
   >= -2.9999987e+07
 c163: - 1e+07 B10(10) - 1e+07 B12(13) + 1e+07 B111(4) - I265(10)
   + I267(16) >= -1.9999987e+07
 c164: - 1e+07 B10(10) - 1e+07 B12(13) - 1e+07 B111(4) + I265(10)
   - I267(16) >= -2.9999992e+07
 c165: - 1e+07 B11(16) - 1e+07 B13(19) + 1e+07 B111(4) - I266(16)
   + I268(22) >= -1.9999992e+07
 c166: - 1e+07 B11(16) - 1e+07 B13(19) - 1e+07 B111(4) + I266(16)
   - I268(22) >= -2.9999989e+07
 c167: - 1e+07 B10(10) - 1e+07 B14(12) + 1e+07 B112(2) - I265(10)
   + I269(12) >= -1.9999975e+07
 c168: - 1e+07 B10(10) - 1e+07 B14(12) - 1e+07 B112(2) + I265(10)
   - I269(12) >= -2.9999985e+07
 c169: - 1e+07 B11(16) - 1e+07 B17(18) + 1e+07 B113(2) - I266(16)
   + I272(18) >= -1.9999992e+07
 c170: - 1e+07 B11(16) - 1e+07 B17(18) - 1e+07 B113(2) + I266(16)
   - I272(18) >= -2.9999983e+07
 c171: - 1e+07 B11(16) - 1e+07 B19(18) + 1e+07 B114(2) - I266(16)
   + I274(22) >= -1.9999982e+07
 c172: - 1e+07 B11(16) - 1e+07 B19(18) - 1e+07 B114(2) + I266(16)
   - I274(22) >= -2.9999977e+07
 c173: - 1e+07 B11(16) - 1e+07 B20(17) + 1e+07 B115(2) - I266(16)
   + I275(18) >= -1.9999978e+07
 c174: - 1e+07 B11(16) - 1e+07 B20(17) - 1e+07 B115(2) + I266(16)
   - I275(18) >= -2.9999993e+07
 c175: - 1e+07 B10(10) - 1e+07 B22(9) + 1e+07 B116(2) - I265(10) + I277(10)
   >= -1.9999986e+07
 c176: - 1e+07 B10(10) - 1e+07 B22(9) - 1e+07 B116(2) + I265(10) - I277(10)
   >= -2.999999e+07
 c177: - 1e+07 B11(16) - 1e+07 B29(16) + 1e+07 B119(2) - I266(16)
   + I284(16) >= -1.9999983e+07
 c178: - 1e+07 B11(16) - 1e+07 B29(16) - 1e+07 B119(2) + I266(16)
   - I284(16) >= -2.9999991e+07
 c179: - 1e+07 B12(13) - 1e+07 B14(12) + 1e+07 B127(2) - I267(16)
   + I269(12) >= -1.999997e+07
 c180: - 1e+07 B12(13) - 1e+07 B14(12) - 1e+07 B127(2) + I267(16)
   - I269(12) >= -2.9999989e+07
 c181: - 1e+07 B13(19) - 1e+07 B17(18) + 1e+07 B128(2) - I268(22)
   + I272(18) >= -1.9999993e+07
 c182: - 1e+07 B13(19) - 1e+07 B17(18) - 1e+07 B128(2) + I268(22)
   - I272(18) >= -2.9999986e+07
 c183: - 1e+07 B13(19) - 1e+07 B19(18) + 1e+07 B129(2) - I268(22)
   + I274(22) >= -1.9999973e+07
 c184: - 1e+07 B13(19) - 1e+07 B19(18) - 1e+07 B129(2) + I268(22)
   - I274(22) >= -2.9999991e+07
 c185: - 1e+07 B13(19) - 1e+07 B20(17) + 1e+07 B130(2) - I268(22)
   + I275(18) >= -1.9999995e+07
 c186: - 1e+07 B13(19) - 1e+07 B20(17) - 1e+07 B130(2) + I268(22)
   - I275(18) >= -2.9999991e+07
 c187: - 1e+07 B12(13) - 1e+07 B22(9) + 1e+07 B131(2) - I267(16) + I277(10)
   >= -1.9999987e+07
 c188: - 1e+07 B12(13) - 1e+07 B22(9) - 1e+07 B131(2) + I267(16) - I277(10)
   >= -2.9999979e+07
 c189: - 1e+07 B13(19) - 1e+07 B29(16) + 1e+07 B134(2) - I268(22)
   + I284(16) >= -1.9999989e+07
 c190: - 1e+07 B13(19) - 1e+07 B29(16) - 1e+07 B134(2) + I268(22)
   - I284(16) >= -2.9999986e+07
 c191: - 1e+07 B12(13) - 1e+07 B14(12) + 1e+07 B141(2) + I267(16)
   - I269(12) >= -1.9999989e+07
 c192: - 1e+07 B12(13) - 1e+07 B14(12) - 1e+07 B141(2) - I267(16)
   + I269(12) >= -2.999997e+07
 c193: - 1e+07 B15(16) - 1e+07 B18(18) + 1e+07 B144(2) - I270(16)
   + I273(22) >= -1.9999992e+07
 c194: - 1e+07 B15(16) - 1e+07 B18(18) - 1e+07 B144(2) + I270(16)
   - I273(22) >= -2.9999972e+07
 c195: - 1e+07 B14(12) - 1e+07 B22(9) + 1e+07 B146(4) - I269(12) + I277(10)
   >= -1.9999977e+07
 c196: - 1e+07 B14(12) - 1e+07 B22(9) - 1e+07 B146(4) + I269(12) - I277(10)
   >= -2.9999989e+07
 c197: - 1e+07 B15(16) - 1e+07 B23(17) + 1e+07 B146(4) - I270(16)
   + I278(18) >= -1.999999e+07
 c198: - 1e+07 B15(16) - 1e+07 B23(17) - 1e+07 B146(4) + I270(16)
   - I278(18) >= -2.999999e+07
 c199: - 1e+07 B15(16) - 1e+07 B26(16) + 1e+07 B148(2) - I270(16)
   + I281(16) >= -1.9999992e+07
 c200: - 1e+07 B15(16) - 1e+07 B26(16) - 1e+07 B148(2) + I270(16)
   - I281(16) >= -2.9999986e+07
 c201: - 1e+07 B13(19) - 1e+07 B17(18) + 1e+07 B156(2) + I268(22)
   - I272(18) >= -1.9999986e+07
 c202: - 1e+07 B13(19) - 1e+07 B17(18) - 1e+07 B156(2) - I268(22)
   + I272(18) >= -2.9999993e+07
 c203: - 1e+07 B17(18) - 1e+07 B19(18) + 1e+07 B159(2) - I272(18)
   + I274(22) >= -1.9999996e+07
 c204: - 1e+07 B17(18) - 1e+07 B19(18) - 1e+07 B159(2) + I272(18)
   - I274(22) >= -2.9999977e+07
 c205: - 1e+07 B17(18) - 1e+07 B20(17) + 1e+07 B160(2) - I272(18)
   + I275(18) >= -1.9999983e+07
 c206: - 1e+07 B17(18) - 1e+07 B20(17) - 1e+07 B160(2) + I272(18)
   - I275(18) >= -2.9999977e+07
 c207: - 1e+07 B16(8) - 1e+07 B24(8) + 1e+07 B162(2) - I271(8) + I279(12)
   >= -1.9999992e+07
 c208: - 1e+07 B16(8) - 1e+07 B24(8) - 1e+07 B162(2) + I271(8) - I279(12)
   >= -2.9999994e+07
 c209: - 1e+07 B17(18) - 1e+07 B29(16) + 1e+07 B164(2) - I272(18)
   + I284(16) >= -1.999999e+07
 c210: - 1e+07 B17(18) - 1e+07 B29(16) - 1e+07 B164(2) + I272(18)
   - I284(16) >= -2.9999976e+07
 c211: - 1e+07 B19(18) - 1e+07 B20(17) + 1e+07 B175(2) - I274(22)
   + I275(18) >= -1.9999977e+07
 c212: - 1e+07 B19(18) - 1e+07 B20(17) - 1e+07 B175(2) + I274(22)
   - I275(18) >= -2.9999982e+07
 c213: - 1e+07 B18(18) - 1e+07 B23(17) + 1e+07 B176(2) - I273(22)
   + I278(18) >= -1.9999994e+07
 c214: - 1e+07 B18(18) - 1e+07 B23(17) - 1e+07 B176(2) + I273(22)
   - I278(18) >= -2.9999978e+07
 c215: - 1e+07 B18(18) - 1e+07 B26(16) + 1e+07 B178(2) - I273(22)
   + I281(16) >= -1.9999989e+07
 c216: - 1e+07 B18(18) - 1e+07 B26(16) - 1e+07 B178(2) + I273(22)
   - I281(16) >= -2.9999992e+07
 c217: - 1e+07 B19(18) - 1e+07 B29(16) + 1e+07 B179(2) - I274(22)
   + I284(16) >= -1.9999985e+07
 c218: - 1e+07 B19(18) - 1e+07 B29(16) - 1e+07 B179(2) + I274(22)
   - I284(16) >= -2.9999981e+07
 c219: - 1e+07 B19(18) - 1e+07 B20(17) + 1e+07 B189(2) + I274(22)
   - I275(18) >= -1.9999982e+07
 c220: - 1e+07 B19(18) - 1e+07 B20(17) - 1e+07 B189(2) - I274(22)
   + I275(18) >= -2.9999977e+07
 c221: - 1e+07 B21(9) - 1e+07 B25(12) + 1e+07 B192(2) - I276(10) + I280(16)
   >= -1.9999985e+07
 c222: - 1e+07 B21(9) - 1e+07 B25(12) - 1e+07 B192(2) + I276(10) - I280(16)
   >= -2.9999988e+07
 c223: - 1e+07 B21(9) - 1e+07 B27(12) + 1e+07 B193(2) - I276(10) + I282(12)
   >= -1.9999993e+07
 c224: - 1e+07 B21(9) - 1e+07 B27(12) - 1e+07 B193(2) + I276(10) - I282(12)
   >= -2.9999993e+07
 c225: - 1e+07 B20(17) - 1e+07 B29(16) + 1e+07 B194(2) - I275(18)
   + I284(16) >= -1.9999993e+07
 c226: - 1e+07 B20(17) - 1e+07 B29(16) - 1e+07 B194(2) + I275(18)
   - I284(16) >= -2.9999984e+07
 c227: - 1e+07 B18(18) - 1e+07 B23(17) + 1e+07 B204(2) + I273(22)
   - I278(18) >= -1.9999978e+07
 c228: - 1e+07 B18(18) - 1e+07 B23(17) - 1e+07 B204(2) - I273(22)
   + I278(18) >= -2.9999994e+07
 c229: - 1e+07 B23(17) - 1e+07 B26(16) + 1e+07 B208(2) - I278(18)
   + I281(16) >= -1.9999988e+07
 c230: - 1e+07 B23(17) - 1e+07 B26(16) - 1e+07 B208(2) + I278(18)
   - I281(16) >= -2.9999973e+07
 c231: - 1e+07 B25(12) - 1e+07 B27(12) + 1e+07 B223(2) - I280(16)
   + I282(12) >= -1.9999976e+07
 c232: - 1e+07 B25(12) - 1e+07 B27(12) - 1e+07 B223(2) + I280(16)
   - I282(12) >= -2.9999991e+07
 c233: - 1e+07 B25(12) - 1e+07 B27(12) + 1e+07 B237(2) + I280(16)
   - I282(12) >= -1.9999991e+07
 c234: - 1e+07 B25(12) - 1e+07 B27(12) - 1e+07 B237(2) - I280(16)
   + I282(12) >= -2.9999976e+07
 c235: - 2 B0(15) + I255(17) >= 0
 c236: I255(17) >= 0
 c237: - 2 B1(11) + I256(13) >= 0
 c238: I256(13) >= 0
 c239: - 2 B2(8) + I257(9) >= 0
 c240: I257(9) >= 0
 c241: - 2 B3(16) + I258(17) >= 0
 c242: I258(17) >= 0
 c243: I259(14) >= 0
 c244: I259(14) >= 0
 c245: I260(16) >= 0
 c246: I260(16) >= 0
 c247: - B6(19) + I261(21) >= 0
 c248: I261(21) >= 0
 c249: - B7(15) + I262(17) >= 0
 c250: I262(17) >= 0
 c251: - 2 B8(18) + I263(19) >= 0
 c252: I263(19) >= 0
 c253: - 2 B9(14) + I264(15) >= 0
 c254: I264(15) >= 0
 c255: - B10(10) + I265(10) >= 0
 c256: I265(10) >= 0
 c257: - B11(16) + I266(16) >= 0
 c258: I266(16) >= 0
 c259: - 3 B12(13) + I267(16) >= 0
 c260: I267(16) >= 0
 c261: - 3 B13(19) + I268(22) >= 0
 c262: I268(22) >= 0
 c263: - 2 B14(12) + I269(12) >= 0
 c264: I269(12) >= 0
 c265: - 2 B15(16) + I270(16) >= 0
 c266: I270(16) >= 0
 c267: - 3 B16(8) + I271(8) >= 0
 c268: I271(8) >= 0
 c269: - 3 B17(18) + I272(18) >= 0
 c270: I272(18) >= 0
 c271: I273(22) >= 0
 c272: I273(22) >= 0
 c273: I274(22) >= 0
 c274: I274(22) >= 0
 c275: I275(18) >= 0
 c276: I275(18) >= 0
 c277: I276(10) >= 0
 c278: I276(10) >= 0
 c279: I277(10) >= 0
 c280: I277(10) >= 0
 c281: I278(18) >= 0
 c282: I278(18) >= 0
 c283: I279(12) >= 0
 c284: I279(12) >= 0
 c285: I280(16) >= 0
 c286: I280(16) >= 0
 c287: - B26(16) + I281(16) >= 0
 c288: I281(16) >= 0
 c289: - B27(12) + I282(12) >= 0
 c290: I282(12) >= 0
 c291: - B28(12) + I283(12) >= 0
 c292: I283(12) >= 0
 c293: - B29(16) + I284(16) >= 0
 c294: I284(16) >= 0
 qc0: I285(1) + 4 B286(5) + 2 B287(5) + 8 B288(5) + 7 B289(5) + B290(5)
   + 4 B291(5) + 12 B292(5) + 12 B293(5) + 10 B294(5) + 8 B295(5) + [
   - I255(17) * B286(5) - I256(13) * B287(5) - I261(21) * B288(5)
   - I262(17) * B289(5) - I267(16) * B290(5) - I268(22) * B291(5)
   - I273(22) * B292(5) - I274(22) * B293(5) - I279(12) * B294(5)
   - I280(16) * B295(5) ] >= 0
Bounds
Binaries
 B0(15) B1(11) B2(8) B3(16) B4(13) B5(15) B6(19) B7(15) B8(18) B9(14)
 B10(10) B11(16) B12(13) B13(19) B14(12) B15(16) B16(8) B17(18) B18(18)
 B19(18) B20(17) B21(9) B22(9) B23(17) B24(8) B25(12) B26(16) B27(12)
 B28(12) B29(16) B30(0) B31(0) B32(2) B33(2) B34(2) B35(0) B36(0) B37(0)
 B38(0) B39(0) B40(2) B41(0) B42(2) B43(2) B44(2) B45(0) B46(0) B47(0)
 B48(2) B49(2) B50(0) B51(0) B52(2) B53(2) B54(2) B55(0) B56(2) B57(2)
 B58(2) B59(0) B60(2) B61(0) B62(0) B63(2) B64(2) B65(2) B66(2) B67(0)
 B68(2) B69(2) B70(2) B71(0) B72(0) B73(0) B74(4) B75(0) B76(0) B77(0)
 B78(0) B79(4) B80(0) B81(0) B82(2) B83(0) B84(2) B85(0) B86(2) B87(0)
 B88(2) B89(2) B90(0) B91(0) B92(0) B93(4) B94(0) B95(0) B96(0) B97(2)
 B98(0) B99(2) B100(0) B101(2) B102(0) B103(2) B104(2) B105(0) B106(0)
 B107(0) B108(0) B109(0) B110(0) B111(4) B112(2) B113(2) B114(2) B115(2)
 B116(2) B117(0) B118(0) B119(2) B120(0) B121(0) B122(0) B123(0) B124(0)
 B125(0) B126(0) B127(2) B128(2) B129(2) B130(2) B131(2) B132(0) B133(0)
 B134(2) B135(0) B136(0) B137(0) B138(0) B139(0) B140(0) B141(2) B142(0)
 B143(0) B144(2) B145(0) B146(4) B147(0) B148(2) B149(0) B150(0) B151(0)
 B152(0) B153(0) B154(0) B155(0) B156(2) B157(0) B158(0) B159(2) B160(2)
 B161(0) B162(2) B163(0) B164(2) B165(0) B166(0) B167(0) B168(0) B169(0)
 B170(0) B171(0) B172(0) B173(0) B174(0) B175(2) B176(2) B177(0) B178(2)
 B179(2) B180(0) B181(0) B182(0) B183(0) B184(0) B185(0) B186(0) B187(0)
 B188(0) B189(2) B190(0) B191(0) B192(2) B193(2) B194(2) B195(0) B196(0)
 B197(0) B198(0) B199(0) B200(0) B201(0) B202(0) B203(0) B204(2) B205(0)
 B206(0) B207(0) B208(2) B209(0) B210(0) B211(0) B212(0) B213(0) B214(0)
 B215(0) B216(0) B217(0) B218(0) B219(0) B220(0) B221(0) B222(0) B223(2)
 B224(0) B225(0) B226(0) B227(0) B228(0) B229(0) B230(0) B231(0) B232(0)
 B233(0) B234(0) B235(0) B236(0) B237(2) B238(0) B239(0) B240(0) B241(0)
 B242(0) B243(0) B244(0) B245(0) B246(0) B247(0) B248(0) B249(0) B250(0)
 B251(0) B252(0) B253(0) B254(0) B286(5) B287(5) B288(5) B289(5) B290(5)
 B291(5) B292(5) B293(5) B294(5) B295(5)
Generals
 I255(17) I256(13) I257(9) I258(17) I259(14) I260(16) I261(21) I262(17)
 I263(19) I264(15) I265(10) I266(16) I267(16) I268(22) I269(12) I270(16)
 I271(8) I272(18) I273(22) I274(22) I275(18) I276(10) I277(10) I278(18)
 I279(12) I280(16) I281(16) I282(12) I283(12) I284(16) I285(1)
End
